(set-logic QF_LRA)
(declare-fun X0 () Real )
(declare-fun Y0 () Real )
(declare-fun X1 () Real )
(declare-fun Y1 () Real )
(declare-fun X2 () Real )
(declare-fun Y2 () Real )
(declare-fun X3 () Real )
(declare-fun Y3 () Real )
(declare-fun X4 () Real )
(declare-fun Y4 () Real )
(declare-fun X5 () Real )
(declare-fun Y5 () Real )
(declare-fun X6 () Real )
(declare-fun Y6 () Real )
(declare-fun X7 () Real )
(declare-fun Y7 () Real )
(declare-fun X8 () Real )
(declare-fun Y8 () Real )
(declare-fun X9 () Real )
(declare-fun Y9 () Real )
(declare-fun X10 () Real )
(declare-fun Y10 () Real )
(declare-fun X11 () Real )
(declare-fun Y11 () Real )
(declare-fun X12 () Real )
(declare-fun Y12 () Real )
(declare-fun X13 () Real )
(declare-fun Y13 () Real )
(declare-fun X14 () Real )
(declare-fun Y14 () Real )
(declare-fun Z () Real )
(assert ( and  
( or ( <= ( + X0 27 ) X1 )  ( <= ( + X1 53 ) X0 )  ( <= ( + Y0 97 ) Y1 )  ( <= ( + Y1 18 ) Y0 )  )
( or ( <= ( + X0 27 ) X2 )  ( <= ( + X2 89 ) X0 )  ( <= ( + Y0 97 ) Y2 )  ( <= ( + Y2 29 ) Y0 )  )
( or ( <= ( + X0 27 ) X3 )  ( <= ( + X3 80 ) X0 )  ( <= ( + Y0 97 ) Y3 )  ( <= ( + Y3 22 ) Y0 )  )
( or ( <= ( + X0 27 ) X4 )  ( <= ( + X4 58 ) X0 )  ( <= ( + Y0 97 ) Y4 )  ( <= ( + Y4 17 ) Y0 )  )
( or ( <= ( + X0 27 ) X5 )  ( <= ( + X5 89 ) X0 )  ( <= ( + Y0 97 ) Y5 )  ( <= ( + Y5 30 ) Y0 )  )
( or ( <= ( + X0 27 ) X6 )  ( <= ( + X6 93 ) X0 )  ( <= ( + Y0 97 ) Y6 )  ( <= ( + Y6 71 ) Y0 )  )
( or ( <= ( + X0 27 ) X7 )  ( <= ( + X7 83 ) X0 )  ( <= ( + Y0 97 ) Y7 )  ( <= ( + Y7 31 ) Y0 )  )
( or ( <= ( + X0 27 ) X8 )  ( <= ( + X8 43 ) X0 )  ( <= ( + Y0 97 ) Y8 )  ( <= ( + Y8 36 ) Y0 )  )
( or ( <= ( + X0 27 ) X9 )  ( <= ( + X9 47 ) X0 )  ( <= ( + Y0 97 ) Y9 )  ( <= ( + Y9 92 ) Y0 )  )
( or ( <= ( + X0 27 ) X10 )  ( <= ( + X10 60 ) X0 )  ( <= ( + Y0 97 ) Y10 )  ( <= ( + Y10 16 ) Y0 )  )
( or ( <= ( + X0 27 ) X11 )  ( <= ( + X11 87 ) X0 )  ( <= ( + Y0 97 ) Y11 )  ( <= ( + Y11 55 ) Y0 )  )
( or ( <= ( + X0 27 ) X12 )  ( <= ( + X12 9 ) X0 )  ( <= ( + Y0 97 ) Y12 )  ( <= ( + Y12 60 ) Y0 )  )
( or ( <= ( + X0 27 ) X13 )  ( <= ( + X13 99 ) X0 )  ( <= ( + Y0 97 ) Y13 )  ( <= ( + Y13 29 ) Y0 )  )
( or ( <= ( + X0 27 ) X14 )  ( <= ( + X14 32 ) X0 )  ( <= ( + Y0 97 ) Y14 )  ( <= ( + Y14 60 ) Y0 )  )
( or ( <= ( + X1 53 ) X2 )  ( <= ( + X2 89 ) X1 )  ( <= ( + Y1 18 ) Y2 )  ( <= ( + Y2 29 ) Y1 )  )
( or ( <= ( + X1 53 ) X3 )  ( <= ( + X3 80 ) X1 )  ( <= ( + Y1 18 ) Y3 )  ( <= ( + Y3 22 ) Y1 )  )
( or ( <= ( + X1 53 ) X4 )  ( <= ( + X4 58 ) X1 )  ( <= ( + Y1 18 ) Y4 )  ( <= ( + Y4 17 ) Y1 )  )
( or ( <= ( + X1 53 ) X5 )  ( <= ( + X5 89 ) X1 )  ( <= ( + Y1 18 ) Y5 )  ( <= ( + Y5 30 ) Y1 )  )
( or ( <= ( + X1 53 ) X6 )  ( <= ( + X6 93 ) X1 )  ( <= ( + Y1 18 ) Y6 )  ( <= ( + Y6 71 ) Y1 )  )
( or ( <= ( + X1 53 ) X7 )  ( <= ( + X7 83 ) X1 )  ( <= ( + Y1 18 ) Y7 )  ( <= ( + Y7 31 ) Y1 )  )
( or ( <= ( + X1 53 ) X8 )  ( <= ( + X8 43 ) X1 )  ( <= ( + Y1 18 ) Y8 )  ( <= ( + Y8 36 ) Y1 )  )
( or ( <= ( + X1 53 ) X9 )  ( <= ( + X9 47 ) X1 )  ( <= ( + Y1 18 ) Y9 )  ( <= ( + Y9 92 ) Y1 )  )
( or ( <= ( + X1 53 ) X10 )  ( <= ( + X10 60 ) X1 )  ( <= ( + Y1 18 ) Y10 )  ( <= ( + Y10 16 ) Y1 )  )
( or ( <= ( + X1 53 ) X11 )  ( <= ( + X11 87 ) X1 )  ( <= ( + Y1 18 ) Y11 )  ( <= ( + Y11 55 ) Y1 )  )
( or ( <= ( + X1 53 ) X12 )  ( <= ( + X12 9 ) X1 )  ( <= ( + Y1 18 ) Y12 )  ( <= ( + Y12 60 ) Y1 )  )
( or ( <= ( + X1 53 ) X13 )  ( <= ( + X13 99 ) X1 )  ( <= ( + Y1 18 ) Y13 )  ( <= ( + Y13 29 ) Y1 )  )
( or ( <= ( + X1 53 ) X14 )  ( <= ( + X14 32 ) X1 )  ( <= ( + Y1 18 ) Y14 )  ( <= ( + Y14 60 ) Y1 )  )
( or ( <= ( + X2 89 ) X3 )  ( <= ( + X3 80 ) X2 )  ( <= ( + Y2 29 ) Y3 )  ( <= ( + Y3 22 ) Y2 )  )
( or ( <= ( + X2 89 ) X4 )  ( <= ( + X4 58 ) X2 )  ( <= ( + Y2 29 ) Y4 )  ( <= ( + Y4 17 ) Y2 )  )
( or ( <= ( + X2 89 ) X5 )  ( <= ( + X5 89 ) X2 )  ( <= ( + Y2 29 ) Y5 )  ( <= ( + Y5 30 ) Y2 )  )
( or ( <= ( + X2 89 ) X6 )  ( <= ( + X6 93 ) X2 )  ( <= ( + Y2 29 ) Y6 )  ( <= ( + Y6 71 ) Y2 )  )
( or ( <= ( + X2 89 ) X7 )  ( <= ( + X7 83 ) X2 )  ( <= ( + Y2 29 ) Y7 )  ( <= ( + Y7 31 ) Y2 )  )
( or ( <= ( + X2 89 ) X8 )  ( <= ( + X8 43 ) X2 )  ( <= ( + Y2 29 ) Y8 )  ( <= ( + Y8 36 ) Y2 )  )
( or ( <= ( + X2 89 ) X9 )  ( <= ( + X9 47 ) X2 )  ( <= ( + Y2 29 ) Y9 )  ( <= ( + Y9 92 ) Y2 )  )
( or ( <= ( + X2 89 ) X10 )  ( <= ( + X10 60 ) X2 )  ( <= ( + Y2 29 ) Y10 )  ( <= ( + Y10 16 ) Y2 )  )
( or ( <= ( + X2 89 ) X11 )  ( <= ( + X11 87 ) X2 )  ( <= ( + Y2 29 ) Y11 )  ( <= ( + Y11 55 ) Y2 )  )
( or ( <= ( + X2 89 ) X12 )  ( <= ( + X12 9 ) X2 )  ( <= ( + Y2 29 ) Y12 )  ( <= ( + Y12 60 ) Y2 )  )
( or ( <= ( + X2 89 ) X13 )  ( <= ( + X13 99 ) X2 )  ( <= ( + Y2 29 ) Y13 )  ( <= ( + Y13 29 ) Y2 )  )
( or ( <= ( + X2 89 ) X14 )  ( <= ( + X14 32 ) X2 )  ( <= ( + Y2 29 ) Y14 )  ( <= ( + Y14 60 ) Y2 )  )
( or ( <= ( + X3 80 ) X4 )  ( <= ( + X4 58 ) X3 )  ( <= ( + Y3 22 ) Y4 )  ( <= ( + Y4 17 ) Y3 )  )
( or ( <= ( + X3 80 ) X5 )  ( <= ( + X5 89 ) X3 )  ( <= ( + Y3 22 ) Y5 )  ( <= ( + Y5 30 ) Y3 )  )
( or ( <= ( + X3 80 ) X6 )  ( <= ( + X6 93 ) X3 )  ( <= ( + Y3 22 ) Y6 )  ( <= ( + Y6 71 ) Y3 )  )
( or ( <= ( + X3 80 ) X7 )  ( <= ( + X7 83 ) X3 )  ( <= ( + Y3 22 ) Y7 )  ( <= ( + Y7 31 ) Y3 )  )
( or ( <= ( + X3 80 ) X8 )  ( <= ( + X8 43 ) X3 )  ( <= ( + Y3 22 ) Y8 )  ( <= ( + Y8 36 ) Y3 )  )
( or ( <= ( + X3 80 ) X9 )  ( <= ( + X9 47 ) X3 )  ( <= ( + Y3 22 ) Y9 )  ( <= ( + Y9 92 ) Y3 )  )
( or ( <= ( + X3 80 ) X10 )  ( <= ( + X10 60 ) X3 )  ( <= ( + Y3 22 ) Y10 )  ( <= ( + Y10 16 ) Y3 )  )
( or ( <= ( + X3 80 ) X11 )  ( <= ( + X11 87 ) X3 )  ( <= ( + Y3 22 ) Y11 )  ( <= ( + Y11 55 ) Y3 )  )
( or ( <= ( + X3 80 ) X12 )  ( <= ( + X12 9 ) X3 )  ( <= ( + Y3 22 ) Y12 )  ( <= ( + Y12 60 ) Y3 )  )
( or ( <= ( + X3 80 ) X13 )  ( <= ( + X13 99 ) X3 )  ( <= ( + Y3 22 ) Y13 )  ( <= ( + Y13 29 ) Y3 )  )
( or ( <= ( + X3 80 ) X14 )  ( <= ( + X14 32 ) X3 )  ( <= ( + Y3 22 ) Y14 )  ( <= ( + Y14 60 ) Y3 )  )
( or ( <= ( + X4 58 ) X5 )  ( <= ( + X5 89 ) X4 )  ( <= ( + Y4 17 ) Y5 )  ( <= ( + Y5 30 ) Y4 )  )
( or ( <= ( + X4 58 ) X6 )  ( <= ( + X6 93 ) X4 )  ( <= ( + Y4 17 ) Y6 )  ( <= ( + Y6 71 ) Y4 )  )
( or ( <= ( + X4 58 ) X7 )  ( <= ( + X7 83 ) X4 )  ( <= ( + Y4 17 ) Y7 )  ( <= ( + Y7 31 ) Y4 )  )
( or ( <= ( + X4 58 ) X8 )  ( <= ( + X8 43 ) X4 )  ( <= ( + Y4 17 ) Y8 )  ( <= ( + Y8 36 ) Y4 )  )
( or ( <= ( + X4 58 ) X9 )  ( <= ( + X9 47 ) X4 )  ( <= ( + Y4 17 ) Y9 )  ( <= ( + Y9 92 ) Y4 )  )
( or ( <= ( + X4 58 ) X10 )  ( <= ( + X10 60 ) X4 )  ( <= ( + Y4 17 ) Y10 )  ( <= ( + Y10 16 ) Y4 )  )
( or ( <= ( + X4 58 ) X11 )  ( <= ( + X11 87 ) X4 )  ( <= ( + Y4 17 ) Y11 )  ( <= ( + Y11 55 ) Y4 )  )
( or ( <= ( + X4 58 ) X12 )  ( <= ( + X12 9 ) X4 )  ( <= ( + Y4 17 ) Y12 )  ( <= ( + Y12 60 ) Y4 )  )
( or ( <= ( + X4 58 ) X13 )  ( <= ( + X13 99 ) X4 )  ( <= ( + Y4 17 ) Y13 )  ( <= ( + Y13 29 ) Y4 )  )
( or ( <= ( + X4 58 ) X14 )  ( <= ( + X14 32 ) X4 )  ( <= ( + Y4 17 ) Y14 )  ( <= ( + Y14 60 ) Y4 )  )
( or ( <= ( + X5 89 ) X6 )  ( <= ( + X6 93 ) X5 )  ( <= ( + Y5 30 ) Y6 )  ( <= ( + Y6 71 ) Y5 )  )
( or ( <= ( + X5 89 ) X7 )  ( <= ( + X7 83 ) X5 )  ( <= ( + Y5 30 ) Y7 )  ( <= ( + Y7 31 ) Y5 )  )
( or ( <= ( + X5 89 ) X8 )  ( <= ( + X8 43 ) X5 )  ( <= ( + Y5 30 ) Y8 )  ( <= ( + Y8 36 ) Y5 )  )
( or ( <= ( + X5 89 ) X9 )  ( <= ( + X9 47 ) X5 )  ( <= ( + Y5 30 ) Y9 )  ( <= ( + Y9 92 ) Y5 )  )
( or ( <= ( + X5 89 ) X10 )  ( <= ( + X10 60 ) X5 )  ( <= ( + Y5 30 ) Y10 )  ( <= ( + Y10 16 ) Y5 )  )
( or ( <= ( + X5 89 ) X11 )  ( <= ( + X11 87 ) X5 )  ( <= ( + Y5 30 ) Y11 )  ( <= ( + Y11 55 ) Y5 )  )
( or ( <= ( + X5 89 ) X12 )  ( <= ( + X12 9 ) X5 )  ( <= ( + Y5 30 ) Y12 )  ( <= ( + Y12 60 ) Y5 )  )
( or ( <= ( + X5 89 ) X13 )  ( <= ( + X13 99 ) X5 )  ( <= ( + Y5 30 ) Y13 )  ( <= ( + Y13 29 ) Y5 )  )
( or ( <= ( + X5 89 ) X14 )  ( <= ( + X14 32 ) X5 )  ( <= ( + Y5 30 ) Y14 )  ( <= ( + Y14 60 ) Y5 )  )
( or ( <= ( + X6 93 ) X7 )  ( <= ( + X7 83 ) X6 )  ( <= ( + Y6 71 ) Y7 )  ( <= ( + Y7 31 ) Y6 )  )
( or ( <= ( + X6 93 ) X8 )  ( <= ( + X8 43 ) X6 )  ( <= ( + Y6 71 ) Y8 )  ( <= ( + Y8 36 ) Y6 )  )
( or ( <= ( + X6 93 ) X9 )  ( <= ( + X9 47 ) X6 )  ( <= ( + Y6 71 ) Y9 )  ( <= ( + Y9 92 ) Y6 )  )
( or ( <= ( + X6 93 ) X10 )  ( <= ( + X10 60 ) X6 )  ( <= ( + Y6 71 ) Y10 )  ( <= ( + Y10 16 ) Y6 )  )
( or ( <= ( + X6 93 ) X11 )  ( <= ( + X11 87 ) X6 )  ( <= ( + Y6 71 ) Y11 )  ( <= ( + Y11 55 ) Y6 )  )
( or ( <= ( + X6 93 ) X12 )  ( <= ( + X12 9 ) X6 )  ( <= ( + Y6 71 ) Y12 )  ( <= ( + Y12 60 ) Y6 )  )
( or ( <= ( + X6 93 ) X13 )  ( <= ( + X13 99 ) X6 )  ( <= ( + Y6 71 ) Y13 )  ( <= ( + Y13 29 ) Y6 )  )
( or ( <= ( + X6 93 ) X14 )  ( <= ( + X14 32 ) X6 )  ( <= ( + Y6 71 ) Y14 )  ( <= ( + Y14 60 ) Y6 )  )
( or ( <= ( + X7 83 ) X8 )  ( <= ( + X8 43 ) X7 )  ( <= ( + Y7 31 ) Y8 )  ( <= ( + Y8 36 ) Y7 )  )
( or ( <= ( + X7 83 ) X9 )  ( <= ( + X9 47 ) X7 )  ( <= ( + Y7 31 ) Y9 )  ( <= ( + Y9 92 ) Y7 )  )
( or ( <= ( + X7 83 ) X10 )  ( <= ( + X10 60 ) X7 )  ( <= ( + Y7 31 ) Y10 )  ( <= ( + Y10 16 ) Y7 )  )
( or ( <= ( + X7 83 ) X11 )  ( <= ( + X11 87 ) X7 )  ( <= ( + Y7 31 ) Y11 )  ( <= ( + Y11 55 ) Y7 )  )
( or ( <= ( + X7 83 ) X12 )  ( <= ( + X12 9 ) X7 )  ( <= ( + Y7 31 ) Y12 )  ( <= ( + Y12 60 ) Y7 )  )
( or ( <= ( + X7 83 ) X13 )  ( <= ( + X13 99 ) X7 )  ( <= ( + Y7 31 ) Y13 )  ( <= ( + Y13 29 ) Y7 )  )
( or ( <= ( + X7 83 ) X14 )  ( <= ( + X14 32 ) X7 )  ( <= ( + Y7 31 ) Y14 )  ( <= ( + Y14 60 ) Y7 )  )
( or ( <= ( + X8 43 ) X9 )  ( <= ( + X9 47 ) X8 )  ( <= ( + Y8 36 ) Y9 )  ( <= ( + Y9 92 ) Y8 )  )
( or ( <= ( + X8 43 ) X10 )  ( <= ( + X10 60 ) X8 )  ( <= ( + Y8 36 ) Y10 )  ( <= ( + Y10 16 ) Y8 )  )
( or ( <= ( + X8 43 ) X11 )  ( <= ( + X11 87 ) X8 )  ( <= ( + Y8 36 ) Y11 )  ( <= ( + Y11 55 ) Y8 )  )
( or ( <= ( + X8 43 ) X12 )  ( <= ( + X12 9 ) X8 )  ( <= ( + Y8 36 ) Y12 )  ( <= ( + Y12 60 ) Y8 )  )
( or ( <= ( + X8 43 ) X13 )  ( <= ( + X13 99 ) X8 )  ( <= ( + Y8 36 ) Y13 )  ( <= ( + Y13 29 ) Y8 )  )
( or ( <= ( + X8 43 ) X14 )  ( <= ( + X14 32 ) X8 )  ( <= ( + Y8 36 ) Y14 )  ( <= ( + Y14 60 ) Y8 )  )
( or ( <= ( + X9 47 ) X10 )  ( <= ( + X10 60 ) X9 )  ( <= ( + Y9 92 ) Y10 )  ( <= ( + Y10 16 ) Y9 )  )
( or ( <= ( + X9 47 ) X11 )  ( <= ( + X11 87 ) X9 )  ( <= ( + Y9 92 ) Y11 )  ( <= ( + Y11 55 ) Y9 )  )
( or ( <= ( + X9 47 ) X12 )  ( <= ( + X12 9 ) X9 )  ( <= ( + Y9 92 ) Y12 )  ( <= ( + Y12 60 ) Y9 )  )
( or ( <= ( + X9 47 ) X13 )  ( <= ( + X13 99 ) X9 )  ( <= ( + Y9 92 ) Y13 )  ( <= ( + Y13 29 ) Y9 )  )
( or ( <= ( + X9 47 ) X14 )  ( <= ( + X14 32 ) X9 )  ( <= ( + Y9 92 ) Y14 )  ( <= ( + Y14 60 ) Y9 )  )
( or ( <= ( + X10 60 ) X11 )  ( <= ( + X11 87 ) X10 )  ( <= ( + Y10 16 ) Y11 )  ( <= ( + Y11 55 ) Y10 )  )
( or ( <= ( + X10 60 ) X12 )  ( <= ( + X12 9 ) X10 )  ( <= ( + Y10 16 ) Y12 )  ( <= ( + Y12 60 ) Y10 )  )
( or ( <= ( + X10 60 ) X13 )  ( <= ( + X13 99 ) X10 )  ( <= ( + Y10 16 ) Y13 )  ( <= ( + Y13 29 ) Y10 )  )
( or ( <= ( + X10 60 ) X14 )  ( <= ( + X14 32 ) X10 )  ( <= ( + Y10 16 ) Y14 )  ( <= ( + Y14 60 ) Y10 )  )
( or ( <= ( + X11 87 ) X12 )  ( <= ( + X12 9 ) X11 )  ( <= ( + Y11 55 ) Y12 )  ( <= ( + Y12 60 ) Y11 )  )
( or ( <= ( + X11 87 ) X13 )  ( <= ( + X13 99 ) X11 )  ( <= ( + Y11 55 ) Y13 )  ( <= ( + Y13 29 ) Y11 )  )
( or ( <= ( + X11 87 ) X14 )  ( <= ( + X14 32 ) X11 )  ( <= ( + Y11 55 ) Y14 )  ( <= ( + Y14 60 ) Y11 )  )
( or ( <= ( + X12 9 ) X13 )  ( <= ( + X13 99 ) X12 )  ( <= ( + Y12 60 ) Y13 )  ( <= ( + Y13 29 ) Y12 )  )
( or ( <= ( + X12 9 ) X14 )  ( <= ( + X14 32 ) X12 )  ( <= ( + Y12 60 ) Y14 )  ( <= ( + Y14 60 ) Y12 )  )
( or ( <= ( + X13 99 ) X14 )  ( <= ( + X14 32 ) X13 )  ( <= ( + Y13 29 ) Y14 )  ( <= ( + Y14 60 ) Y13 )  )
( >= X0 0)
( <= ( + X0 27) Z)
( >= Y0 0)
( <= ( + Y0 97 ) 193)
( >= X1 0)
( <= ( + X1 53) Z)
( >= Y1 0)
( <= ( + Y1 18 ) 193)
( >= X2 0)
( <= ( + X2 89) Z)
( >= Y2 0)
( <= ( + Y2 29 ) 193)
( >= X3 0)
( <= ( + X3 80) Z)
( >= Y3 0)
( <= ( + Y3 22 ) 193)
( >= X4 0)
( <= ( + X4 58) Z)
( >= Y4 0)
( <= ( + Y4 17 ) 193)
( >= X5 0)
( <= ( + X5 89) Z)
( >= Y5 0)
( <= ( + Y5 30 ) 193)
( >= X6 0)
( <= ( + X6 93) Z)
( >= Y6 0)
( <= ( + Y6 71 ) 193)
( >= X7 0)
( <= ( + X7 83) Z)
( >= Y7 0)
( <= ( + Y7 31 ) 193)
( >= X8 0)
( <= ( + X8 43) Z)
( >= Y8 0)
( <= ( + Y8 36 ) 193)
( >= X9 0)
( <= ( + X9 47) Z)
( >= Y9 0)
( <= ( + Y9 92 ) 193)
( >= X10 0)
( <= ( + X10 60) Z)
( >= Y10 0)
( <= ( + Y10 16 ) 193)
( >= X11 0)
( <= ( + X11 87) Z)
( >= Y11 0)
( <= ( + Y11 55 ) 193)
( >= X12 0)
( <= ( + X12 9) Z)
( >= Y12 0)
( <= ( + Y12 60 ) 193)
( >= X13 0)
( <= ( + X13 99) Z)
( >= Y13 0)
( <= ( + Y13 29 ) 193)
( >= X14 0)
( <= ( + X14 32) Z)
( >= Y14 0)
( <= ( + Y14 60 ) 193)
) )
(minimize Z)
(check-sat)
